# Solution for model count
# Objective value = 9
z#1 0
z#2 1
z#3 1
z#4 0
z#5 1
z#6 0
z#7 0
z#8 0
z#9 1
z#10 0
z#11 0
z#12 0
z#13 1
z#14 1
z#15 0
z#16 0
z#17 1
z#18 0
z#19 0
z#20 1
z#21 0
z#22 0
z#23 1
z#24 0
x#24 0
x#23 972
x#22 0
x#21 0
x#20 1044
x#19 0
x#18 0
x#17 776
x#16 0
x#15 0
x#14 399
x#13 3
x#12 0
x#11 0
x#10 0
x#9 3823
x#8 0
x#7 0
x#6 0
x#5 618
x#4 0
x#3 2286
x#2 79
x#1 0
